qbf_easy_train/easy_4164_UNSAT.qdimacs
p cnf 27 71
a 19 20 5 0
e 1 2 3 4 6 7 8 9 10 11 12 13 14 15 16 17 18 21 22 23 24 25 26 27 0
4 -2 0
4 3 0
2 -3 -4 0
1 4 -5 0
-1 -4 -5 0
1 -4 5 0
-1 4 5 0
1 5 -6 0
-1 -5 -6 0
1 -5 6 0
-1 5 6 0
-7 4 0
-7 -1 0
-4 1 7 0
-8 -7 0
-8 -3 0
7 3 8 0
-9 -6 0
-9 -8 0
6 8 9 0
-1 -10 -11 0
1 10 -11 0
-1 10 11 0
1 -10 11 0
-13 11 0
-13 -12 0
-11 12 13 0
14 -9 0
14 -13 0
9 13 -14 0
16 15 0
16 -2 0
-15 2 -16 0
-18 17 0
-18 8 0
-17 -8 18 0
16 -18 -19 0
-16 18 -19 0
16 18 19 0
-16 -18 19 0
2 -6 -20 0
-2 6 -20 0
2 6 20 0
-2 -6 20 0
21 20 0
21 2 0
-20 -2 -21 0
22 11 0
22 21 0
-11 -21 -22 0
-23 19 0
-23 22 0
-19 -22 23 0
14 -23 -24 0
-14 23 -24 0
14 23 24 0
-14 -23 24 0
-25 -17 -26 0
25 17 -26 0
-25 17 26 0
25 -17 26 0
-27 -24 0
-27 26 0
24 -26 27 0
16 5 8 0
-1 23 -15 0
-21 -6 16 0
-1 -26 23 -12 0
-17 -12 -2 0
1 -8 14 -4 -3 -11 -20 0
27 0
