sat_easy_train/easy_4164_UNSAT.dimacs
p cnf 110 367
-4 -2 0
-4 -3 0
2 3 4 0
1 -4 -5 0
-1 4 -5 0
1 4 5 0
-1 -4 5 0
-6 -7 -8 0
6 7 -8 0
-6 7 8 0
6 -7 8 0
-8 9 -10 0
8 -9 -10 0
-8 -9 10 0
8 9 10 0
-12 11 0
-12 8 0
-11 -8 12 0
11 -9 -13 0
-11 9 -13 0
11 9 13 0
-11 -9 13 0
-12 -13 -14 0
12 13 -14 0
-12 13 14 0
12 -13 14 0
10 -6 -15 0
-10 6 -15 0
10 6 15 0
-10 -6 15 0
-16 -6 0
-16 -15 0
6 15 16 0
-14 -16 -17 0
14 16 -17 0
-14 16 17 0
14 -16 17 0
18 -10 0
18 -17 0
10 17 -18 0
-19 -1 0
-19 -17 0
1 17 19 0
18 19 -20 0
-18 -19 -20 0
18 -19 20 0
-18 19 20 0
-5 20 -21 0
5 -20 -21 0
-5 -20 21 0
5 20 21 0
-24 -22 0
-24 23 0
22 -23 24 0
-25 4 0
-25 -3 0
-4 3 25 0
25 -26 -27 0
-25 26 -27 0
25 26 27 0
-25 -26 27 0
24 27 -28 0
-24 -27 -28 0
24 -27 28 0
-24 27 28 0
-29 21 0
-29 28 0
-21 -28 29 0
30 6 0
30 -6 0
-31 -30 0
-31 3 0
30 -3 31 0
32 -10 0
32 -15 0
10 15 -32 0
33 -15 0
33 -32 0
15 32 -33 0
31 33 -34 0
-31 -33 -34 0
31 -33 34 0
-31 33 34 0
-36 -9 0
-36 -35 0
9 35 36 0
-37 36 0
-37 1 0
-36 -1 37 0
25 -13 -39 0
-25 13 -39 0
25 13 39 0
-25 -13 39 0
-41 39 0
-41 -40 0
-39 40 41 0
42 14 0
42 41 0
-14 -41 -42 0
38 42 -43 0
-38 -42 -43 0
38 -42 43 0
-38 42 43 0
-37 43 -44 0
37 -43 -44 0
-37 -43 44 0
37 43 44 0
-45 -30 0
-45 7 0
30 -7 45 0
1 45 -46 0
-1 -45 -46 0
1 -45 46 0
-1 45 46 0
-47 46 0
-47 -9 0
-46 9 47 0
-48 -38 -49 0
48 38 -49 0
-48 38 49 0
48 -38 49 0
47 49 -50 0
-47 -49 -50 0
47 -49 50 0
-47 49 50 0
7 50 -51 0
-7 -50 -51 0
7 -50 51 0
-7 50 51 0
-52 -44 0
-52 -51 0
44 51 52 0
6 53 0
-6 53 0
52 -53 -54 0
-52 53 -54 0
52 53 54 0
-52 -53 54 0
55 49 0
55 -40 0
-49 40 -55 0
56 -30 0
56 -55 0
30 55 -56 0
48 26 -57 0
-48 -26 -57 0
48 -26 57 0
-48 26 57 0
58 56 0
58 57 0
-56 -57 -58 0
59 -54 0
59 58 0
54 -58 -59 0
34 59 -60 0
-34 -59 -60 0
34 -59 60 0
-34 59 60 0
36 -47 -61 0
-36 47 -61 0
36 47 61 0
-36 -47 61 0
62 -13 0
62 30 0
13 -30 -62 0
63 -62 0
63 -13 0
62 13 -63 0
64 61 0
64 63 0
-61 -63 -64 0
65 -6 0
65 38 0
6 -38 -65 0
-66 22 0
-66 -65 0
-22 65 66 0
-67 -66 0
-67 46 0
66 -46 67 0
-68 64 0
-68 -67 0
-64 67 68 0
69 4 0
69 41 0
-4 -41 -69 0
-70 -40 0
-70 12 0
40 -12 70 0
71 15 0
71 70 0
-15 -70 -71 0
-69 -71 -72 0
69 71 -72 0
-69 71 72 0
69 -71 72 0
-73 -70 -74 0
73 70 -74 0
-73 70 74 0
73 -70 74 0
-75 65 0
-75 74 0
-65 -74 75 0
-11 -65 -76 0
11 65 -76 0
-11 65 76 0
11 -65 76 0
75 76 -77 0
-75 -76 -77 0
75 -76 77 0
-75 76 77 0
78 -10 -79 0
-78 10 -79 0
78 10 79 0
-78 -10 79 0
-80 55 0
-80 -79 0
-55 79 80 0
77 80 -81 0
-77 -80 -81 0
77 -80 81 0
-77 80 81 0
82 72 0
82 -81 0
-72 81 -82 0
-83 26 0
-83 -30 0
-26 30 83 0
-84 8 0
-84 -83 0
-8 83 84 0
8 14 -85 0
-8 -14 -85 0
8 -14 85 0
-8 14 85 0
-86 -84 0
-86 85 0
84 -85 86 0
-55 -4 -87 0
55 4 -87 0
-55 4 87 0
55 -4 87 0
-87 22 -88 0
87 -22 -88 0
-87 -22 88 0
87 22 88 0
89 -36 0
89 -14 0
36 14 -89 0
-88 89 -90 0
88 -89 -90 0
-88 -89 90 0
88 89 90 0
-91 -88 0
-91 -87 0
88 87 91 0
-92 -91 0
-92 -42 0
91 42 92 0
93 90 0
93 -92 0
-90 92 -93 0
86 93 -94 0
-86 -93 -94 0
86 -93 94 0
-86 93 94 0
95 -82 0
95 -94 0
82 94 -95 0
-96 36 0
-96 32 0
-36 -32 96 0
97 -96 0
97 9 0
96 -9 -97 0
-97 63 -98 0
97 -63 -98 0
-97 -63 98 0
97 63 98 0
95 98 -99 0
-95 -98 -99 0
95 -98 99 0
-95 98 99 0
100 68 0
100 99 0
-68 -99 -100 0
101 60 0
101 100 0
-60 -100 -101 0
102 7 0
102 -38 0
-7 38 -102 0
11 -2 -103 0
-11 2 -103 0
11 2 103 0
-11 -2 103 0
104 62 0
104 46 0
-62 -46 -104 0
-105 103 0
-105 -104 0
-103 104 105 0
-106 -46 0
-106 -16 0
46 16 106 0
107 105 0
107 106 0
-105 -106 -107 0
-108 -102 0
-108 -107 0
102 107 108 0
-109 101 0
-109 108 0
-101 -108 109 0
29 -109 -110 0
-29 109 -110 0
29 109 110 0
-29 -109 110 0
-46 37 -87 103 2 99 0
-97 17 -59 -85 -76 0
-38 94 72 0
72 -88 0
21 77 0
-55 12 0
-71 -86 0
-48 -24 105 -101 10 0
93 -7 -30 62 97 0
-12 -104 -16 75 64 7 0
20 -2 26 -53 -19 0
21 -77 0
105 83 -24 18 107 0
-105 36 -80 108 81 0
-51 -35 47 0
3 101 57 1 0
64 -24 21 0
58 18 -48 9 83 0
-37 91 0
-60 7 -74 24 -51 28 0
106 84 0
-61 50 0
-12 36 -60 52 101 0
69 -62 0
14 82 -31 0
80 -68 0
-71 35 0
29 -18 0
-63 -62 30 -37 0
-16 -84 91 75 0
-97 69 -102 12 0
34 95 0
60 6 -98 72 0
52 43 78 -13 0
-4 37 91 -87 97 0
11 -84 6 0
-14 100 -85 -31 -87 81 0
23 -24 0
-82 -80 -102 50 37 81 0
100 74 0
-97 -74 60 -100 108 0
-102 -60 83 0
60 -49 -9 23 0
-40 -17 60 -50 -56 29 0
34 32 98 7 -81 0
110 75 88 69 38 -60 0
-21 -30 -23 0
-21 24 59 -28 0
110 0
